nNurses = 113;
nHours = 36;
minHours = 8;
maxHours = 17;
maxConsec = 13;
maxPresence = 29;
demand = [20, 22, 18, 17, 17, 19, 23, 20, 15, 18, 18, 17, 12, 17, 20, 22, 18, 15, 14, 18, 19, 22, 20, 19, 20, 25, 28, 25, 28, 31, 29, 24, 23, 28, 33, 28];
